50 2520
1018 1028 1070 597 605 681 829 933 746 1098 784 397 1109 486 826 447 895 892 1143 1112 428 1114 916 972 1067 784 1082 671 953 909 530 1082 751 438 710 1124 779 1107 632 1022 638 805 1136 709 501 1113 838 1080 478 842 
710 727 808 212 218 281 434 572 343 867 383 91 891 138 431 116 518 514 971 898 106 903 548 632 801 383 832 272 602 537 165 832 348 111 308 925 377 887 239 716 244 406 954 307 147 899 445 829 133 450 
